40901 38222 
40268 39094 
40131 39339 
40810 38589 
40737 38887 
40002 39483 
40237 39233 
41240 38008 
40484 39042 
40765 38775 
40030 39371 
39835 39655 
39931 39597 
39709 39660 
39104 40100 
39451 39934 
39959 39485 
38669 40446 
40166 39300 
38937 40272 
39658 39796 
39229 39997 
39198 40089 
38416 40601 
37761 40722 
38876 40308 
38673 40311 
39405 39951 
38623 40463 
38487 40543 
38952 40106 
38055 40715 
37308 40939 
37475 40767 
36821 40950 
36483 40959 
37389 40873 
37596 40735 
36036 41004 
